objective value:                                 -174
x1                                                  1 	(obj:-1)
x4                                                  1 	(obj:-1)
x6                                                  1 	(obj:-1)
x13                                                 1 	(obj:-1)
x20                                                 1 	(obj:-1)
x24                                                 1 	(obj:-1)
x27                                                 1 	(obj:-1)
x38                                                 1 	(obj:-1)
x40                                                 1 	(obj:-1)
x44                                                 1 	(obj:-1)
x48                                                 1 	(obj:-1)
x49                                                 1 	(obj:-1)
x52                                                 1 	(obj:-1)
x58                                                 1 	(obj:-1)
x63                                                 1 	(obj:-1)
x68                                                 1 	(obj:-1)
x71                                                 1 	(obj:-1)
x76                                                 1 	(obj:-1)
x111                                                1 	(obj:-1)
x113                                                1 	(obj:-1)
x124                                                1 	(obj:-1)
x126                                                1 	(obj:-1)
x131                                                1 	(obj:-1)
x136                                                1 	(obj:-1)
x137                                                1 	(obj:-1)
x149                                                1 	(obj:-1)
x153                                                1 	(obj:-1)
x154                                                1 	(obj:-1)
x157                                                1 	(obj:-1)
x163                                                1 	(obj:-1)
x170                                                1 	(obj:-1)
x175                                                1 	(obj:-1)
x177                                                1 	(obj:-1)
x179                                                1 	(obj:-1)
x186                                                1 	(obj:-1)
x193                                                1 	(obj:-1)
x198                                                1 	(obj:-1)
x207                                                1 	(obj:-1)
x213                                                1 	(obj:-1)
x219                                                1 	(obj:-1)
x220                                                1 	(obj:-1)
x223                                                1 	(obj:-1)
x232                                                1 	(obj:-1)
x237                                                1 	(obj:-1)
x239                                                1 	(obj:-1)
x246                                                1 	(obj:-1)
x247                                                1 	(obj:-1)
x249                                                1 	(obj:-1)
x253                                                1 	(obj:-1)
x257                                                1 	(obj:-1)
x258                                                1 	(obj:-1)
x263                                                1 	(obj:-1)
x289                                                1 	(obj:-1)
x294                                                1 	(obj:-1)
x295                                                1 	(obj:-1)
x298                                                1 	(obj:-1)
x306                                                1 	(obj:-1)
x318                                                1 	(obj:-1)
x333                                                1 	(obj:-1)
x334                                                1 	(obj:-1)
x336                                                1 	(obj:-1)
x341                                                1 	(obj:-1)
x355                                                1 	(obj:-1)
x364                                                1 	(obj:-1)
x367                                                1 	(obj:-1)
x373                                                1 	(obj:-1)
x375                                                1 	(obj:-1)
x384                                                1 	(obj:-1)
x388                                                1 	(obj:-1)
x389                                                1 	(obj:-1)
x390                                                1 	(obj:-1)
x391                                                1 	(obj:-1)
x401                                                1 	(obj:-1)
x412                                                1 	(obj:-1)
x414                                                1 	(obj:-1)
x422                                                1 	(obj:-1)
x426                                                1 	(obj:-1)
x445                                                1 	(obj:-1)
x450                                                1 	(obj:-1)
x451                                                1 	(obj:-1)
x467                                                1 	(obj:-1)
x468                                                1 	(obj:-1)
x469                                                1 	(obj:-1)
x471                                                1 	(obj:-1)
x476                                                1 	(obj:-1)
x479                                                1 	(obj:-1)
x482                                                1 	(obj:-1)
x485                                                1 	(obj:-1)
x486                                                1 	(obj:-1)
x490                                                1 	(obj:-1)
x498                                                1 	(obj:-1)
x509                                                1 	(obj:-1)
x536                                                1 	(obj:-1)
x539                                                1 	(obj:-1)
x545                                                1 	(obj:-1)
x551                                                1 	(obj:-1)
x564                                                1 	(obj:-1)
x570                                                1 	(obj:-1)
x575                                                1 	(obj:-1)
x576                                                1 	(obj:-1)
x582                                                1 	(obj:-1)
x585                                                1 	(obj:-1)
x586                                                1 	(obj:-1)
x606                                                1 	(obj:-1)
x625                                                1 	(obj:-1)
x626                                                1 	(obj:-1)
x627                                                1 	(obj:-1)
x629                                                1 	(obj:-1)
x630                                                1 	(obj:-1)
x632                                                1 	(obj:-1)
x637                                                1 	(obj:-1)
x640                                                1 	(obj:-1)
x644                                                1 	(obj:-1)
x658                                                1 	(obj:-1)
x659                                                1 	(obj:-1)
x665                                                1 	(obj:-1)
x667                                                1 	(obj:-1)
x677                                                1 	(obj:-1)
x683                                                1 	(obj:-1)
x686                                                1 	(obj:-1)
x687                                                1 	(obj:-1)
x692                                                1 	(obj:-1)
x710                                                1 	(obj:-1)
x715                                                1 	(obj:-1)
x717                                                1 	(obj:-1)
x729                                                1 	(obj:-1)
x733                                                1 	(obj:-1)
x738                                                1 	(obj:-1)
x747                                                1 	(obj:-1)
x748                                                1 	(obj:-1)
x750                                                1 	(obj:-1)
x763                                                1 	(obj:-1)
x770                                                1 	(obj:-1)
x771                                                1 	(obj:-1)
x780                                                1 	(obj:-1)
x781                                                1 	(obj:-1)
x786                                                1 	(obj:-1)
x788                                                1 	(obj:-1)
x793                                                1 	(obj:-1)
x794                                                1 	(obj:-1)
x795                                                1 	(obj:-1)
x797                                                1 	(obj:-1)
x809                                                1 	(obj:-1)
x811                                                1 	(obj:-1)
x817                                                1 	(obj:-1)
x819                                                1 	(obj:-1)
x821                                                1 	(obj:-1)
x825                                                1 	(obj:-1)
x826                                                1 	(obj:-1)
x830                                                1 	(obj:-1)
x839                                                1 	(obj:-1)
x852                                                1 	(obj:-1)
x854                                                1 	(obj:-1)
x858                                                1 	(obj:-1)
x863                                                1 	(obj:-1)
x864                                                1 	(obj:-1)
x884                                                1 	(obj:-1)
x887                                                1 	(obj:-1)
x906                                                1 	(obj:-1)
x907                                                1 	(obj:-1)
x920                                                1 	(obj:-1)
x923                                                1 	(obj:-1)
x942                                                1 	(obj:-1)
x946                                                1 	(obj:-1)
x955                                                1 	(obj:-1)
x957                                                1 	(obj:-1)
x978                                                1 	(obj:-1)
x983                                                1 	(obj:-1)
x989                                                1 	(obj:-1)
x990                                                1 	(obj:-1)
x996                                                1 	(obj:-1)
x1000                                               1 	(obj:-1)
x1005                                               1 	(obj:-1)
x1010                                               1 	(obj:-1)
